50
94.41
0 1 0.70 0.51
0 2 0.02 0.03
0 3 0.30 0.26
0 4 0.85 0.01
0 5 0.97 0.23
0 6 0.49 0.03
0 7 0.60 0.63
0 8 0.68 0.41
0 9 1.00 0.78
0 10 0.73 0.88
0 11 0.49 0.53
0 12 0.05 0.67
0 13 0.19 0.90
0 14 0.40 0.44
0 15 0.21 0.29
0 16 0.77 0.68
0 17 0.26 0.33
0 18 0.93 0.72
0 19 0.25 0.77
0 20 0.45 0.74
0 21 0.20 0.36
0 22 0.94 0.83
0 23 0.71 0.68
0 24 0.61 0.23
0 25 0.32 0.49
0 26 0.82 0.51
0 27 0.08 0.81
0 28 0.63 0.66
0 29 0.31 0.11
0 30 0.47 0.23
0 31 0.07 0.94
0 32 0.52 0.76
0 33 0.72 0.34
0 34 0.37 0.95
0 35 0.82 0.92
0 36 0.29 0.51
0 37 0.94 0.99
0 38 0.35 0.66
0 39 0.80 0.52
0 40 0.33 0.13
0 41 0.51 0.46
0 42 0.95 0.33
0 43 0.65 0.78
0 44 0.68 0.40
0 45 0.59 0.41
0 46 0.91 0.55
0 47 0.39 0.65
0 48 0.22 0.67
0 49 0.93 0.54
1 2 0.04 0.34
1 3 0.64 0.06
1 4 0.09 0.05
1 5 0.88 0.21
1 6 0.52 0.60
1 7 0.16 0.63
1 8 0.40 0.12
1 9 0.89 0.63
1 10 0.04 0.46
1 11 0.47 0.02
1 12 0.11 0.67
1 13 0.23 0.31
1 14 0.56 0.76
1 15 0.31 0.82
1 16 0.37 0.03
1 17 0.45 0.20
1 18 0.49 0.94
1 19 0.25 0.30
1 20 0.64 0.09
1 21 0.60 0.09
1 22 0.03 0.78
1 23 0.89 0.63
1 24 0.40 0.09
1 25 0.20 0.58
1 26 0.15 0.21
1 27 0.42 0.09
1 28 0.93 0.65
1 29 0.02 0.72
1 30 0.44 0.28
1 31 0.35 0.55
1 32 0.55 0.91
1 33 0.18 0.91
1 34 0.21 0.99
1 35 0.64 0.91
1 36 0.36 0.87
1 37 0.82 0.40
1 38 0.01 0.95
1 39 0.32 0.89
1 40 0.60 0.79
1 41 0.13 0.24
1 42 0.94 0.10
1 43 0.93 0.09
1 44 0.49 0.66
1 45 0.03 0.61
1 46 0.54 0.66
1 47 0.13 0.92
1 48 0.33 0.68
1 49 0.10 0.41
2 3 0.70 0.13
2 4 0.37 0.68
2 5 0.57 0.97
2 6 0.69 0.09
2 7 0.62 0.15
2 8 0.47 0.80
2 9 0.11 0.25
2 10 0.89 0.63
2 11 0.64 0.92
2 12 0.58 0.09
2 13 0.82 0.37
2 14 0.12 0.86
2 15 0.28 0.21
2 16 0.84 0.47
2 17 0.47 0.53
2 18 0.20 0.50
2 19 0.61 0.12
2 20 0.28 0.21
2 21 0.14 0.42
2 22 0.40 0.29
2 23 0.74 0.90
2 24 0.02 0.70
2 25 0.79 0.81
2 26 0.83 0.90
2 27 0.29 0.22
2 28 0.73 0.80
2 29 0.35 0.46
2 30 0.11 0.68
2 31 0.26 0.19
2 32 0.39 0.13
2 33 0.57 0.79
2 34 0.19 0.63
2 35 0.14 0.39
2 36 0.90 0.04
2 37 0.12 0.88
2 38 0.36 0.40
2 39 0.42 0.42
2 40 0.56 0.85
2 41 0.96 0.70
2 42 0.80 0.71
2 43 0.76 0.36
2 44 0.39 0.81
2 45 0.34 0.16
2 46 0.79 0.30
2 47 0.62 0.47
2 48 0.16 0.78
2 49 0.32 0.57
3 4 0.26 0.36
3 5 0.85 0.85
3 6 0.99 0.86
3 7 0.37 0.66
3 8 0.43 0.32
3 9 0.31 0.50
3 10 0.27 0.85
3 11 0.46 0.89
3 12 0.08 0.07
3 13 0.87 0.26
3 14 0.66 0.60
3 15 0.41 0.91
3 16 0.66 0.69
3 17 0.23 0.78
3 18 0.94 0.78
3 19 0.83 0.40
3 20 0.89 0.21
3 21 0.99 0.19
3 22 0.90 0.72
3 23 0.24 0.42
3 24 0.79 0.43
3 25 0.27 0.58
3 26 0.29 0.25
3 27 0.30 0.59
3 28 0.33 0.24
3 29 0.25 0.02
3 30 0.15 0.59
3 31 0.56 0.92
3 32 0.38 0.78
3 33 0.12 0.89
3 34 0.65 0.23
3 35 0.34 0.76
3 36 0.61 0.88
3 37 0.69 0.36
3 38 0.27 0.05
3 39 0.39 0.04
3 40 0.86 0.39
3 41 0.62 0.95
3 42 0.49 0.63
3 43 0.38 0.87
3 44 0.15 0.17
3 45 0.37 0.68
3 46 0.35 0.58
3 47 0.20 0.68
3 48 0.18 0.64
3 49 0.82 0.35
4 5 0.67 0.16
4 6 0.90 0.31
4 7 0.55 0.73
4 8 0.02 0.56
4 9 0.10 0.83
4 10 0.95 0.22
4 11 0.69 0.27
4 12 0.23 0.87
4 13 0.52 0.45
4 14 0.70 0.68
4 15 0.03 0.58
4 16 0.35 0.76
4 17 0.71 0.57
4 18 0.91 0.86
4 19 0.84 0.04
4 20 0.94 0.00
4 21 0.34 0.93
4 22 0.16 0.05
4 23 0.55 0.58
4 24 0.59 0.16
4 25 0.01 0.72
4 26 0.94 0.82
4 27 0.57 0.72
4 28 0.21 0.15
4 29 0.25 0.16
4 30 0.79 0.25
4 31 0.45 0.73
4 32 0.99 0.32
4 33 0.14 0.07
4 34 0.19 0.40
4 35 0.98 0.30
4 36 0.82 0.11
4 37 0.01 0.99
4 38 0.60 0.27
4 39 0.12 0.11
4 40 0.62 0.08
4 41 0.44 0.96
4 42 0.47 0.51
4 43 0.74 0.39
4 44 0.76 0.64
4 45 0.51 0.33
4 46 0.29 0.35
4 47 0.95 0.88
4 48 0.43 0.63
4 49 0.82 0.60
5 6 0.32 0.65
5 7 0.37 0.56
5 8 0.97 0.03
5 9 0.22 0.76
5 10 0.18 0.58
5 11 0.43 0.31
5 12 0.16 0.62
5 13 0.11 0.01
5 14 0.51 0.07
5 15 0.31 0.39
5 16 0.44 0.32
5 17 0.08 0.54
5 18 0.79 0.89
5 19 0.49 0.55
5 20 0.55 0.89
5 21 0.32 0.80
5 22 0.52 0.95
5 23 0.58 0.56
5 24 0.83 0.77
5 25 0.75 0.44
5 26 0.73 0.78
5 27 0.92 0.22
5 28 0.62 0.21
5 29 0.74 0.59
5 30 0.24 0.74
5 31 0.02 0.53
5 32 0.02 0.58
5 33 0.88 0.77
5 34 0.97 0.53
5 35 0.61 0.40
5 36 0.41 0.84
5 37 0.07 0.78
5 38 0.55 0.18
5 39 0.06 0.28
5 40 0.19 0.16
5 41 0.14 0.65
5 42 0.21 0.32
5 43 0.13 0.05
5 44 0.18 0.55
5 45 0.64 0.23
5 46 0.60 0.06
5 47 0.31 0.31
5 48 0.52 0.82
5 49 0.46 0.99
6 7 0.15 0.26
6 8 0.91 0.56
6 9 0.14 0.83
6 10 0.95 0.83
6 11 0.02 0.38
6 12 0.30 0.55
6 13 0.38 0.73
6 14 0.32 0.40
6 15 0.20 0.09
6 16 0.16 0.93
6 17 0.99 0.33
6 18 0.88 0.45
6 19 0.39 0.73
6 20 0.27 0.33
6 21 0.01 0.46
6 22 0.26 0.42
6 23 0.27 0.60
6 24 0.94 0.88
6 25 0.45 0.38
6 26 0.20 0.92
6 27 0.86 0.94
6 28 0.15 0.01
6 29 0.00 0.03
6 30 0.16 0.99
6 31 0.27 0.57
6 32 0.24 0.70
6 33 0.71 0.64
6 34 0.02 0.21
6 35 0.55 0.52
6 36 0.09 0.18
6 37 0.44 0.84
6 38 0.76 0.00
6 39 0.75 0.89
6 40 0.44 0.28
6 41 0.81 0.95
6 42 0.40 0.30
6 43 0.54 0.36
6 44 0.10 0.20
6 45 0.53 0.92
6 46 0.96 0.78
6 47 0.15 0.90
6 48 0.01 0.57
6 49 0.65 0.95
7 8 0.78 0.26
7 9 0.75 0.49
7 10 0.83 0.30
7 11 0.84 0.59
7 12 0.74 0.24
7 13 0.08 0.73
7 14 0.18 0.52
7 15 0.33 0.78
7 16 0.19 0.45
7 17 0.36 0.14
7 18 0.18 0.68
7 19 0.64 0.83
7 20 0.07 0.49
7 21 0.29 0.58
7 22 0.33 0.96
7 23 0.33 0.91
7 24 0.81 0.30
7 25 0.31 0.26
7 26 0.36 0.71
7 27 0.27 0.93
7 28 0.09 0.87
7 29 0.44 0.50
7 30 0.07 0.11
7 31 0.49 0.52
7 32 0.72 0.51
7 33 0.67 0.23
7 34 0.02 0.28
7 35 0.54 0.08
7 36 0.80 0.31
7 37 0.12 0.63
7 38 0.26 0.79
7 39 0.46 0.31
7 40 0.25 0.44
7 41 0.08 0.50
7 42 0.72 0.57
7 43 0.36 0.71
7 44 0.42 0.59
7 45 0.25 0.49
7 46 0.06 0.85
7 47 0.12 0.88
7 48 0.08 0.49
7 49 0.27 0.93
8 9 0.54 0.78
8 10 0.00 0.20
8 11 0.05 0.58
8 12 0.10 0.35
8 13 0.03 0.05
8 14 0.07 0.01
8 15 0.48 0.45
8 16 0.13 0.16
8 17 0.75 0.24
8 18 0.98 0.19
8 19 0.99 0.88
8 20 0.75 0.50
8 21 0.33 0.86
8 22 0.81 0.99
8 23 0.71 0.74
8 24 0.83 0.82
8 25 0.98 0.08
8 26 0.37 0.29
8 27 0.25 0.58
8 28 0.98 0.65
8 29 0.20 0.66
8 30 0.40 0.18
8 31 0.34 0.16
8 32 0.76 0.10
8 33 0.73 0.46
8 34 0.03 0.10
8 35 0.90 0.61
8 36 0.48 0.06
8 37 0.73 0.29
8 38 0.31 0.55
8 39 0.53 0.85
8 40 0.84 0.05
8 41 0.46 0.53
8 42 0.50 0.45
8 43 0.90 0.99
8 44 0.64 0.50
8 45 0.85 0.00
8 46 0.20 0.80
8 47 0.58 0.52
8 48 0.51 0.65
8 49 0.71 0.48
9 10 0.41 0.00
9 11 0.62 0.64
9 12 0.74 0.91
9 13 0.24 0.50
9 14 0.48 0.16
9 15 0.69 0.99
9 16 0.38 0.46
9 17 0.22 0.56
9 18 0.00 0.77
9 19 0.77 0.71
9 20 0.25 0.10
9 21 0.83 0.51
9 22 0.36 0.41
9 23 0.96 0.71
9 24 0.16 0.36
9 25 0.28 0.11
9 26 0.36 0.97
9 27 0.27 0.76
9 28 0.62 0.05
9 29 0.67 0.45
9 30 0.73 0.35
9 31 0.15 0.71
9 32 0.39 0.93
9 33 0.64 0.50
9 34 0.84 0.76
9 35 0.35 0.61
9 36 0.56 0.64
9 37 0.91 0.54
9 38 0.42 0.52
9 39 0.74 0.97
9 40 0.31 0.72
9 41 0.80 0.23
9 42 0.78 0.27
9 43 0.52 0.53
9 44 0.98 0.68
9 45 0.23 0.03
9 46 0.05 0.51
9 47 0.26 0.45
9 48 0.23 0.55
9 49 0.90 0.16
10 11 0.32 0.75
10 12 0.20 0.38
10 13 0.84 0.12
10 14 0.63 0.39
10 15 0.33 0.14
10 16 0.47 0.98
10 17 0.50 0.95
10 18 0.90 0.44
10 19 0.57 0.04
10 20 0.26 0.36
10 21 0.62 0.87
10 22 0.18 0.55
10 23 0.90 0.83
10 24 0.10 0.97
10 25 0.40 0.20
10 26 0.86 0.90
10 27 0.31 0.05
10 28 0.92 0.51
10 29 0.45 0.94
10 30 0.20 0.27
10 31 0.68 0.85
10 32 0.69 0.20
10 33 0.71 0.12
10 34 0.22 0.26
10 35 0.40 0.40
10 36 0.93 0.27
10 37 0.22 0.61
10 38 0.33 0.60
10 39 0.35 0.21
10 40 0.79 0.54
10 41 0.71 0.13
10 42 0.64 0.48
10 43 0.54 0.91
10 44 0.67 0.68
10 45 0.29 0.63
10 46 0.87 0.17
10 47 0.01 0.26
10 48 0.38 0.81
10 49 0.61 0.90
11 12 0.82 0.17
11 13 0.64 0.19
11 14 0.07 0.20
11 15 0.95 0.55
11 16 0.28 0.90
11 17 0.00 0.77
11 18 0.73 0.06
11 19 0.98 0.24
11 20 0.43 0.60
11 21 0.57 0.57
11 22 0.09 0.76
11 23 0.56 0.06
11 24 0.69 0.10
11 25 0.22 0.16
11 26 0.14 0.99
11 27 0.34 0.08
11 28 0.88 0.80
11 29 0.21 0.01
11 30 0.43 0.43
11 31 0.30 0.63
11 32 0.73 0.89
11 33 0.57 0.28
11 34 0.58 0.37
11 35 0.86 0.08
11 36 0.20 0.38
11 37 0.11 0.97
11 38 0.25 0.65
11 39 0.82 0.21
11 40 0.28 0.06
11 41 0.57 0.80
11 42 0.72 0.45
11 43 0.24 0.80
11 44 0.35 0.61
11 45 0.14 0.20
11 46 0.96 0.29
11 47 0.98 0.86
11 48 0.95 0.38
11 49 0.27 0.44
12 13 0.42 0.04
12 14 0.37 0.66
12 15 0.13 0.55
12 16 0.98 0.40
12 17 0.85 0.86
12 18 0.18 0.63
12 19 0.81 0.49
12 20 0.28 0.94
12 21 0.23 0.88
12 22 0.17 0.04
12 23 0.93 0.00
12 24 0.86 0.71
12 25 0.37 0.45
12 26 0.52 0.15
12 27 0.45 0.44
12 28 0.67 0.17
12 29 0.23 0.86
12 30 0.63 0.88
12 31 0.17 0.95
12 32 0.54 0.88
12 33 0.30 0.46
12 34 0.48 0.87
12 35 0.14 0.10
12 36 0.86 0.71
12 37 0.24 0.74
12 38 0.33 0.88
12 39 0.38 0.75
12 40 0.07 0.54
12 41 0.74 0.24
12 42 0.69 0.53
12 43 0.98 0.39
12 44 0.57 0.31
12 45 0.90 0.44
12 46 0.85 0.93
12 47 0.97 0.58
12 48 0.54 0.88
12 49 0.14 0.88
13 14 0.45 0.51
13 15 0.56 0.14
13 16 0.28 0.74
13 17 0.40 0.39
13 18 0.05 0.50
13 19 0.80 0.33
13 20 0.47 0.81
13 21 0.71 0.51
13 22 0.69 0.08
13 23 0.94 0.66
13 24 0.16 0.10
13 25 0.04 0.68
13 26 0.63 0.30
13 27 0.28 0.73
13 28 0.75 0.58
13 29 0.20 0.11
13 30 0.72 0.39
13 31 0.62 0.71
13 32 0.47 0.84
13 33 0.90 0.77
13 34 0.34 0.84
13 35 0.88 0.92
13 36 0.66 0.83
13 37 0.52 0.94
13 38 0.21 0.78
13 39 0.03 0.27
13 40 0.05 0.12
13 41 0.98 0.73
13 42 0.88 0.77
13 43 0.94 0.80
13 44 0.79 0.10
13 45 0.44 0.91
13 46 0.88 0.27
13 47 0.70 0.15
13 48 0.94 0.98
13 49 0.21 0.73
14 15 0.26 0.47
14 16 0.11 0.60
14 17 0.95 0.58
14 18 0.07 0.46
14 19 0.84 0.62
14 20 0.21 0.30
14 21 0.70 0.38
14 22 0.16 0.08
14 23 0.82 0.13
14 24 0.46 0.21
14 25 0.64 0.53
14 26 0.09 0.68
14 27 0.49 0.46
14 28 0.63 0.44
14 29 0.22 0.01
14 30 0.28 0.18
14 31 0.57 0.74
14 32 0.73 0.26
14 33 0.66 0.28
14 34 0.38 0.77
14 35 0.11 0.02
14 36 0.64 0.73
14 37 0.38 0.24
14 38 0.45 1.00
14 39 0.43 0.99
14 40 0.30 0.33
14 41 0.85 0.03
14 42 0.83 0.15
14 43 0.28 0.74
14 44 0.73 0.48
14 45 0.78 0.12
14 46 0.76 0.20
14 47 0.53 0.99
14 48 0.65 0.99
14 49 0.61 0.42
15 16 0.38 0.92
15 17 0.41 0.98
15 18 0.74 0.85
15 19 0.57 0.40
15 20 0.04 0.92
15 21 0.68 0.80
15 22 0.97 0.39
15 23 0.62 0.60
15 24 0.94 0.47
15 25 0.65 0.97
15 26 0.09 0.50
15 27 0.03 0.98
15 28 0.36 0.98
15 29 0.47 0.42
15 30 0.95 0.71
15 31 0.20 0.83
15 32 0.32 0.96
15 33 1.00 0.78
15 34 0.82 0.60
15 35 0.48 0.36
15 36 0.94 0.51
15 37 0.37 0.52
15 38 0.55 0.02
15 39 0.15 0.90
15 40 0.90 0.11
15 41 0.95 0.24
15 42 0.65 0.67
15 43 0.44 0.79
15 44 0.69 0.28
15 45 0.65 0.35
15 46 0.41 0.36
15 47 0.91 0.10
15 48 0.07 0.02
15 49 0.88 0.12
16 17 0.99 0.59
16 18 0.87 0.26
16 19 0.00 0.10
16 20 0.34 0.64
16 21 0.14 0.13
16 22 0.12 0.50
16 23 0.70 0.80
16 24 0.15 0.04
16 25 0.17 0.15
16 26 0.24 0.15
16 27 0.12 0.83
16 28 0.11 0.45
16 29 0.36 0.13
16 30 0.59 0.94
16 31 0.90 0.10
16 32 0.25 0.83
16 33 0.76 0.02
16 34 0.06 0.02
16 35 0.94 0.89
16 36 0.54 0.72
16 37 0.73 0.50
16 38 0.91 0.41
16 39 0.58 0.05
16 40 0.08 0.26
16 41 0.67 0.76
16 42 0.36 0.17
16 43 0.11 0.58
16 44 0.29 0.35
16 45 0.22 0.61
16 46 0.75 0.80
16 47 0.84 0.38
16 48 0.99 0.53
16 49 0.45 0.14
17 18 0.86 0.68
17 19 0.42 0.86
17 20 0.73 0.38
17 21 0.92 0.29
17 22 0.97 0.40
17 23 0.65 0.84
17 24 0.64 0.44
17 25 0.66 0.77
17 26 0.01 0.57
17 27 0.82 0.06
17 28 0.52 0.52
17 29 0.83 0.52
17 30 0.32 0.72
17 31 0.30 0.12
17 32 0.35 0.94
17 33 0.04 0.78
17 34 0.15 0.73
17 35 0.79 0.19
17 36 0.53 0.83
17 37 0.16 0.03
17 38 0.16 0.45
17 39 0.31 0.30
17 40 0.03 0.93
17 41 0.73 0.68
17 42 0.17 0.57
17 43 0.65 0.47
17 44 0.38 0.01
17 45 0.70 0.82
17 46 0.89 0.60
17 47 0.63 0.25
17 48 0.36 0.74
17 49 0.52 0.95
18 19 0.66 0.34
18 20 0.74 0.77
18 21 0.10 0.65
18 22 0.13 0.99
18 23 0.46 0.74
18 24 0.38 0.22
18 25 0.49 0.77
18 26 0.85 0.66
18 27 0.07 0.43
18 28 0.65 0.72
18 29 0.51 0.01
18 30 0.49 0.14
18 31 0.59 0.01
18 32 0.34 0.61
18 33 0.39 0.50
18 34 0.38 0.38
18 35 0.25 0.22
18 36 0.96 0.01
18 37 0.45 0.59
18 38 0.49 0.34
18 39 0.41 0.02
18 40 0.71 0.54
18 41 0.54 0.97
18 42 0.20 0.01
18 43 0.13 0.84
18 44 0.46 0.06
18 45 0.46 0.05
18 46 0.04 0.43
18 47 0.76 0.52
18 48 0.71 0.07
18 49 0.70 0.83
19 20 0.52 0.65
19 21 0.07 0.88
19 22 0.79 0.29
19 23 0.91 0.47
19 24 0.15 0.34
19 25 0.40 0.05
19 26 0.73 0.28
19 27 0.18 0.91
19 28 0.53 0.73
19 29 0.56 0.74
19 30 0.25 0.66
19 31 0.10 0.66
19 32 0.23 0.46
19 33 0.40 0.29
19 34 0.41 0.87
19 35 0.72 0.32
19 36 0.84 0.42
19 37 0.32 0.50
19 38 0.09 0.10
19 39 0.39 0.09
19 40 0.09 0.03
19 41 0.64 0.25
19 42 0.03 0.64
19 43 0.41 0.55
19 44 0.13 0.74
19 45 0.12 0.47
19 46 0.35 0.83
19 47 0.64 0.23
19 48 0.70 0.16
19 49 0.60 0.58
20 21 0.45 0.32
20 22 0.71 0.50
20 23 0.97 0.47
20 24 0.09 0.03
20 25 0.36 0.03
20 26 0.73 0.70
20 27 0.81 0.60
20 28 0.74 0.87
20 29 0.45 0.25
20 30 0.65 0.34
20 31 0.87 0.24
20 32 0.99 0.72
20 33 0.01 0.07
20 34 0.97 0.86
20 35 0.33 0.15
20 36 0.23 0.56
20 37 0.98 0.78
20 38 0.02 0.18
20 39 0.99 0.30
20 40 0.44 0.56
20 41 0.35 1.00
20 42 0.25 0.18
20 43 0.87 0.37
20 44 0.61 0.93
20 45 0.08 0.12
20 46 0.36 0.98
20 47 0.82 0.14
20 48 0.55 0.65
20 49 0.97 0.78
21 22 0.63 0.24
21 23 0.38 0.34
21 24 0.10 0.40
21 25 0.16 0.81
21 26 0.94 0.70
21 27 0.03 0.33
21 28 0.58 0.97
21 29 0.94 0.61
21 30 0.56 0.88
21 31 0.72 0.94
21 32 0.38 0.08
21 33 0.06 0.97
21 34 0.69 0.03
21 35 0.41 0.74
21 36 0.60 0.81
21 37 0.63 0.14
21 38 0.48 0.37
21 39 0.15 0.02
21 40 0.92 0.91
21 41 0.69 0.28
21 42 0.65 0.45
21 43 0.16 0.69
21 44 0.76 0.99
21 45 0.15 0.81
21 46 0.69 0.31
21 47 0.51 0.52
21 48 0.37 0.36
21 49 0.06 0.41
22 23 0.24 0.73
22 24 0.30 0.53
22 25 0.54 0.24
22 26 0.64 0.47
22 27 0.52 0.05
22 28 0.85 0.61
22 29 0.76 0.81
22 30 0.89 0.63
22 31 0.05 0.04
22 32 0.43 0.96
22 33 0.35 0.31
22 34 0.12 0.06
22 35 0.50 0.35
22 36 0.04 0.18
22 37 0.17 0.59
22 38 0.33 0.95
22 39 0.80 0.95
22 40 0.85 0.63
22 41 0.59 0.99
22 42 0.07 0.52
22 43 0.21 0.67
22 44 0.03 0.73
22 45 0.31 0.39
22 46 0.34 0.18
22 47 0.95 0.39
22 48 0.71 0.37
22 49 0.57 0.01
23 24 0.77 0.68
23 25 0.72 0.16
23 26 0.11 0.49
23 27 0.29 0.62
23 28 0.65 0.80
23 29 0.26 0.42
23 30 0.19 0.28
23 31 0.45 0.15
23 32 0.68 0.86
23 33 0.46 0.47
23 34 0.77 0.76
23 35 0.86 0.51
23 36 0.53 0.65
23 37 0.38 0.93
23 38 0.55 0.83
23 39 0.18 0.04
23 40 0.20 0.51
23 41 0.04 0.82
23 42 0.91 0.64
23 43 0.80 0.85
23 44 0.58 0.57
23 45 0.55 0.16
23 46 0.65 0.27
23 47 0.53 0.16
23 48 0.64 0.46
23 49 0.37 0.19
24 25 0.85 0.28
24 26 0.82 0.52
24 27 0.32 1.00
24 28 0.87 0.80
24 29 0.34 0.25
24 30 0.91 0.79
24 31 0.73 0.80
24 32 0.70 0.61
24 33 0.00 0.58
24 34 0.29 0.97
24 35 0.45 0.70
24 36 0.24 0.53
24 37 0.25 0.27
24 38 0.80 0.54
24 39 0.47 0.39
24 40 0.74 0.55
24 41 0.03 0.48
24 42 0.15 0.28
24 43 0.26 0.76
24 44 0.19 0.50
24 45 0.36 0.05
24 46 0.51 0.26
24 47 0.10 0.85
24 48 1.00 0.87
24 49 0.68 0.39
25 26 0.44 0.34
25 27 0.23 0.87
25 28 0.49 0.87
25 29 0.14 0.54
25 30 0.03 0.76
25 31 0.89 0.40
25 32 0.77 0.20
25 33 0.77 0.27
25 34 0.60 0.33
25 35 0.38 0.68
25 36 0.66 0.03
25 37 0.22 0.26
25 38 0.53 0.80
25 39 0.99 0.66
25 40 0.51 0.82
25 41 0.65 0.25
25 42 0.16 0.41
25 43 0.35 0.77
25 44 0.78 0.34
25 45 0.64 0.57
25 46 0.84 0.25
25 47 0.17 0.14
25 48 0.69 0.32
25 49 0.25 0.43
26 27 0.80 0.07
26 28 0.58 0.51
26 29 0.50 0.58
26 30 0.54 0.82
26 31 0.18 0.87
26 32 0.06 0.11
26 33 0.06 0.76
26 34 0.61 0.41
26 35 0.18 0.13
26 36 0.13 0.89
26 37 0.36 0.64
26 38 0.94 0.43
26 39 0.19 0.07
26 40 0.90 0.12
26 41 0.04 0.33
26 42 0.81 0.41
26 43 0.09 0.98
26 44 0.85 0.57
26 45 0.98 0.95
26 46 0.12 0.04
26 47 0.93 0.89
26 48 0.10 0.82
26 49 0.80 0.28
27 28 0.34 0.36
27 29 0.32 0.23
27 30 0.81 0.79
27 31 0.50 0.62
27 32 0.80 0.32
27 33 0.82 0.63
27 34 0.54 0.26
27 35 0.98 0.43
27 36 0.98 0.52
27 37 0.32 0.16
27 38 0.15 0.39
27 39 0.76 0.44
27 40 0.35 0.77
27 41 0.73 0.82
27 42 0.40 0.65
27 43 0.24 0.37
27 44 0.15 0.38
27 45 0.24 0.24
27 46 0.02 0.32
27 47 0.85 0.29
27 48 0.60 0.76
27 49 0.23 0.29
28 29 0.22 0.67
28 30 0.81 0.99
28 31 0.17 0.47
28 32 0.57 0.91
28 33 0.94 0.08
28 34 0.85 0.90
28 35 0.88 0.91
28 36 0.48 0.65
28 37 0.43 0.53
28 38 0.53 0.73
28 39 0.88 0.57
28 40 0.30 0.94
28 41 0.42 0.82
28 42 0.93 0.74
28 43 0.49 0.67
28 44 0.66 0.32
28 45 0.11 0.17
28 46 0.93 0.07
28 47 0.49 0.26
28 48 0.42 0.71
28 49 0.61 0.98
29 30 0.81 0.83
29 31 0.19 0.90
29 32 0.69 0.96
29 33 0.48 0.74
29 34 0.77 0.24
29 35 0.08 0.60
29 36 0.26 0.24
29 37 0.08 0.28
29 38 0.11 0.38
29 39 0.52 0.91
29 40 0.50 0.69
29 41 0.93 0.02
29 42 0.82 0.64
29 43 0.42 0.61
29 44 0.52 0.06
29 45 0.58 0.30
29 46 0.13 0.27
29 47 0.29 0.39
29 48 0.20 0.16
29 49 0.33 0.38
30 31 0.03 0.11
30 32 0.15 0.65
30 33 0.21 0.68
30 34 0.37 0.74
30 35 0.45 0.84
30 36 0.59 0.37
30 37 0.04 0.13
30 38 0.64 0.32
30 39 0.27 0.34
30 40 0.63 0.32
30 41 0.94 0.38
30 42 0.10 0.54
30 43 0.85 0.73
30 44 0.08 0.57
30 45 0.91 0.42
30 46 0.53 0.27
30 47 0.99 0.80
30 48 0.19 0.34
30 49 0.90 0.22
31 32 0.19 0.87
31 33 0.61 0.17
31 34 0.78 0.47
31 35 0.53 0.41
31 36 0.82 0.56
31 37 0.98 0.39
31 38 0.12 0.97
31 39 0.94 0.65
31 40 0.42 0.25
31 41 0.53 0.46
31 42 0.72 0.61
31 43 0.47 0.35
31 44 0.86 0.29
31 45 0.89 0.32
31 46 0.78 0.83
31 47 0.99 0.75
31 48 0.76 0.82
31 49 0.34 0.46
32 33 0.63 0.91
32 34 0.02 0.29
32 35 0.10 0.54
32 36 0.71 0.69
32 37 0.82 0.25
32 38 0.46 0.98
32 39 0.86 0.20
32 40 0.92 0.30
32 41 0.84 0.91
32 42 0.48 0.19
32 43 0.40 0.02
32 44 0.70 0.02
32 45 0.40 0.52
32 46 0.37 0.02
32 47 0.65 0.41
32 48 0.44 0.93
32 49 0.04 0.76
33 34 0.51 0.75
33 35 0.14 0.22
33 36 0.12 0.84
33 37 0.66 0.82
33 38 0.42 0.44
33 39 0.11 0.90
33 40 0.82 0.92
33 41 0.25 0.76
33 42 0.13 0.99
33 43 0.13 0.70
33 44 0.16 0.35
33 45 0.26 0.42
33 46 0.71 0.86
33 47 0.48 0.39
33 48 0.64 0.23
33 49 0.75 0.13
34 35 0.04 0.56
34 36 0.11 0.25
34 37 0.73 0.45
34 38 0.35 0.15
34 39 0.48 0.89
34 40 0.54 0.87
34 41 1.00 0.95
34 42 0.44 0.32
34 43 0.98 0.93
34 44 0.64 0.74
34 45 0.58 0.62
34 46 0.55 0.39
34 47 0.56 0.85
34 48 0.21 0.44
34 49 0.23 0.67
35 36 0.95 0.70
35 37 0.85 0.47
35 38 0.57 0.73
35 39 0.83 0.82
35 40 0.82 0.99
35 41 0.35 0.13
35 42 0.77 0.02
35 43 0.24 0.19
35 44 0.77 0.06
35 45 0.31 0.77
35 46 0.59 0.85
35 47 0.85 0.34
35 48 0.96 0.90
35 49 0.83 0.09
36 37 0.53 0.39
36 38 0.94 0.08
36 39 0.25 0.22
36 40 0.26 0.33
36 41 0.01 1.00
36 42 0.30 0.60
36 43 0.22 0.44
36 44 0.49 0.30
36 45 0.80 0.08
36 46 0.80 0.87
36 47 0.33 0.25
36 48 0.07 0.00
36 49 0.19 0.63
37 38 0.38 0.35
37 39 0.61 0.07
37 40 0.56 0.69
37 41 0.20 0.08
37 42 0.22 0.33
37 43 0.63 0.72
37 44 0.45 0.21
37 45 0.63 0.61
37 46 0.12 0.59
37 47 0.17 0.07
37 48 0.44 0.28
37 49 0.53 0.02
38 39 0.64 0.33
38 40 0.85 0.14
38 41 0.70 0.62
38 42 0.31 0.54
38 43 0.10 0.92
38 44 0.36 0.57
38 45 0.38 0.11
38 46 0.02 0.70
38 47 0.90 0.47
38 48 0.04 0.78
38 49 0.96 0.00
39 40 0.69 0.77
39 41 0.12 0.00
39 42 0.22 0.18
39 43 0.73 0.88
39 44 0.19 0.23
39 45 0.06 0.36
39 46 0.97 0.57
39 47 0.47 0.55
39 48 0.12 0.10
39 49 0.40 0.56
40 41 0.61 0.72
40 42 0.85 0.75
40 43 0.50 0.93
40 44 0.22 0.52
40 45 0.69 0.93
40 46 0.02 0.59
40 47 0.29 0.02
40 48 0.54 0.31
40 49 0.98 0.09
41 42 0.58 0.60
41 43 0.82 0.28
41 44 0.00 0.10
41 45 0.16 0.82
41 46 0.41 0.92
41 47 0.42 0.92
41 48 0.81 0.68
41 49 0.17 0.63
42 43 0.98 0.46
42 44 0.12 0.09
42 45 0.63 0.84
42 46 0.43 0.03
42 47 0.70 0.72
42 48 0.13 1.00
42 49 0.59 0.23
43 44 0.77 0.44
43 45 0.73 0.17
43 46 0.21 0.54
43 47 0.31 0.47
43 48 0.17 0.98
43 49 0.43 0.66
44 45 0.26 0.26
44 46 0.13 0.34
44 47 0.24 0.13
44 48 0.57 0.97
44 49 0.96 0.77
45 46 0.12 0.06
45 47 0.46 0.51
45 48 0.10 0.84
45 49 0.04 0.87
46 47 0.35 0.85
46 48 0.65 0.09
46 49 0.65 0.24
47 48 0.01 0.63
47 49 0.71 0.91
48 49 0.33 0.20